Optimize a model with 10001 rows, 10200 columns and 68508 nonzeros
Model has 1 quadratic constraint
Coefficient statistics:
  Matrix range    [1e+00, 1e+02]
  Objective range [1e+02, 7e+02]
  Bounds range    [1e+00, 1e+02]
  RHS range       [1e+00, 1e+02]
Presolve removed 0 rows and 102 columns
Presolve time: 0.25s
Presolved: 19803 rows, 19899 columns, 107712 nonzeros
Variable types: 0 continuous, 19899 integer (19800 binary)

Root relaxation: objective 2.670000e+02, 180 iterations, 0.05 seconds

    Nodes    |    Current Node    |     Objective Bounds      |     Work
 Expl Unexpl |  Obj  Depth IntInf | Incumbent    BestBd   Gap | It/Node Time

     0     0  267.00000    0   85          -  267.00000      -     -    0s
     0     0  267.00000    0   85          -  267.00000      -     -    1s
     0     0  267.00000    0   86          -  267.00000      -     -    1s
     0     0  267.00000    0   86          -  267.00000      -     -    1s
     0     0  267.00000    0   88          -  267.00000      -     -    2s
     0     0  267.00000    0   85          -  267.00000      -     -    2s
     0     0  267.00000    0   85          -  267.00000      -     -    3s
H    0     0                    5193.0000000  267.00000  94.9%     -   10s
     0     2  267.00000    0   85 5193.00000  267.00000  94.9%     -   14s
    17    19  267.00000   17   85 5193.00000  267.00000  94.9%  54.8   15s
   244   246  267.00000  244   85 5193.00000  267.00000  94.9%   5.0   20s
   486   488  267.00000  486   85 5193.00000  267.00000  94.9%   3.0   25s
   709   711  267.00000  709   85 5193.00000  267.00000  94.9%   2.4   30s
   935   937  267.00000  935   85 5193.00000  267.00000  94.9%   2.1   35s
H  972   972                    5181.0000000  267.00000  94.8%   2.0   41s
  1131  1133  267.00000 1131   85 5181.00000  267.00000  94.8%   1.9   45s
  1319  1321  267.00000 1319   85 5181.00000  267.00000  94.8%   1.8   54s
  1347  1349  267.00000 1347   85 5181.00000  267.00000  94.8%   1.7   55s
  1625  1627  267.00000 1625   85 5181.00000  267.00000  94.8%   1.6   60s
  1900  1902  267.00000 1900   85 5181.00000  267.00000  94.8%   1.5   65s
  2174  2176  267.00000 2174   86 5181.00000  267.00000  94.8%   1.5   70s
  2407  2409  267.00000 2407   86 5181.00000  267.00000  94.8%   1.4   75s
  2634  2636  267.00000 2634   86 5181.00000  267.00000  94.8%   1.4   80s
  2863  2865  267.00000 2863   86 5181.00000  267.00000  94.8%   1.4   85s
  3095  3097  267.00000 3095   86 5181.00000  267.00000  94.8%   1.3   90s
  3324  3326  267.00000 3324   86 5181.00000  267.00000  94.8%   1.3   95s
  3573  3575  267.00000 3573   86 5181.00000  267.00000  94.8%   1.3  100s
  3770  3772  267.00000 3770   86 5181.00000  267.00000  94.8%   1.3  108s
  3861  3863  267.00000 3861   87 5181.00000  267.00000  94.8%   1.3  110s
  4132  4134  267.00000 4132   88 5181.00000  267.00000  94.8%   1.2  115s
  4395  4397  267.00000 4395   88 5181.00000  267.00000  94.8%   1.2  120s
  4660  4662  267.00000 4660   89 5181.00000  267.00000  94.8%   1.2  125s
  4924  4926  267.00000 4924   89 5181.00000  267.00000  94.8%   1.2  130s
  5187  5189  267.00000 5187   89 5181.00000  267.00000  94.8%   1.2  135s
  5453  5455  267.00000 5453   89 5181.00000  267.00000  94.8%   1.2  140s
  5703  5705  267.00000 5703   88 5181.00000  267.00000  94.8%   1.2  145s
  5938  5940  267.00000 5938   89 5181.00000  267.00000  94.8%   1.2  150s
H 5942  5942                    5158.0000000  267.00000  94.8%   1.2  157s
  6078  6080  267.00000 6078   89 5158.00000  267.00000  94.8%   1.2  160s
  6319  6321  267.00000 6319   89 5158.00000  267.00000  94.8%   1.2  165s
  6562  6564  267.00000 6562   89 5158.00000  267.00000  94.8%   1.2  170s
  6793  6795  267.00000 6793   89 5158.00000  267.00000  94.8%   1.2  175s
  7038  7040  267.00000 7038   89 5158.00000  267.00000  94.8%   1.1  180s
  7269  7271  267.00000 7269   89 5158.00000  267.00000  94.8%   1.1  185s
  7503  7505  267.00000 7503   90 5158.00000  267.00000  94.8%   1.1  190s
  7742  7744  267.00000 7742   91 5158.00000  267.00000  94.8%   1.1  195s
  7978  7980  267.00000 7978   91 5158.00000  267.00000  94.8%   1.1  200s
  8217  8219  267.00000 8217   91 5158.00000  267.00000  94.8%   1.1  205s
  8454  8456  267.00000 8454   91 5158.00000  267.00000  94.8%   1.1  210s
  8691  8693  267.00000 8691   91 5158.00000  267.00000  94.8%   1.1  215s
  8928  8930  267.00000 8928   91 5158.00000  267.00000  94.8%   1.1  220s
  9072  9074  267.00000 9072   91 5158.00000  267.00000  94.8%   1.1  225s
  9313  9315  267.00000 9313   91 5158.00000  267.00000  94.8%   1.1  230s
  9437  9429     cutoff 9416      5158.00000  370.00000  92.8%   1.3  235s
  9459  9433 5135.97166 7245   24 5158.00000 5135.97166  0.43%   1.3  242s
  9469  9443 5141.11925   23   32 5158.00000 5141.11925  0.33%   1.6  245s
  9707  9436 5144.73417   24   10 5158.00000 5144.73417  0.26%   2.8  250s
* 9900  8950              38    5156.0000000 5145.84886  0.20%   3.7  252s
 10035  8905 5148.05427   37   60 5156.00000 5146.95000  0.18%   4.3  255s
*10257  8326              35    5152.0000000 5148.60169  0.07%   5.1  257s

Cutting planes:
  Learned: 1

Explored 10356 nodes (59455 simplex iterations) in 258.17 seconds
Thread count was 1 (of 4 available processors)

Optimal solution found (tolerance 1.00e-04)
Best objective 5.152000000000e+03, best bound 5.152000000000e+03, gap 0.0%
5152
(90,0) (0,98) (17,1) (1,68) (4,93) (98,4) (6,77) (99,6) (55,7) (7,66) (12,10) (10,90) (95,12) (93,17) (42,18) (18,65) (22,23) (36,22) (23,97) (58,30) (30,72) (62,35) (35,99) (75,36) (40,83) (85,40) (70,41) (41,74) (96,42) (43,60) (77,43) (44,52) (78,44) (50,47) (47,55) (60,50) (52,81) (81,58) (71,61) (61,96) (65,62) (66,64) (64,95) (68,75) (72,70) (83,71) (74,85) (97,78) 
